
50
139346

4274 3288
10815 9833
10582 9593
10179 9184
8918 7900
9753 8751
1010 5
7264 6270
3463 2477
8308 7305
5333 4324
6584 5601
6434 5428
6750 5762
9282 8274
10810 9816
4442 3456
9047 8062
9905 8893
4923 3921
2218 1235
5991 4974
8638 7647
6233 5242
2825 1845
8047 7055
4248 3246
9879 8863
2677 1685
6939 5939
4838 3855
10858 9850
2379 1387
9797 8802
5168 4177
4732 3719
3102 2082
5931 4946
10292 9294
10978 9994
10406 9396
7130 6113
3346 2361
6080 5073
7490 6498
3958 2960
10873 9870
1841 846
3355 2349
3026 2033
